conditionSynthesis/results/older_submissions/repairExamples_04-10-11-44-39/cvc4/sv-comp/ntdrivers-simplified/kbfiltr_simpl1_synth.cvc4.res
unsat
(define-fun verifier.error ((x0 Bool) (x1 Bool) (x2 Bool)) Bool (or x0 (not x0)))
(define-fun mainventry ((x0 Int)) Bool (= x0 x0))
(define-fun mainventry.KbFilter_PnP.exit.i_crit_edge ((x0 (Array Int Int)) (x1 Int) (x2 (Array Int Int)) (x3 Int) (x4 (Array Int Int)) (x5 Int) (x6 Int) (x7 (Array Int Int))) Bool (= x0 x0))
(define-fun mainv_6 ((x0 (Array Int Int)) (x1 Int) (x2 (Array Int Int)) (x3 Int) (x4 (Array Int Int)) (x5 Int) (x6 Int) (x7 (Array Int Int)) (x8 Int) (x9 Int) (x10 (Array Int Int)) (x11 Int) (x12 (Array Int Int)) (x13 Int) (x14 (Array Int Int)) (x15 Int) (x16 (Array Int Int)) (x17 (Array Int Int)) (x18 (Array Int Int)) (x19 Int)) Bool (= 0 1))
(define-fun mainvverifier.error.split () Bool false)
(define-fun mainventry!_BAD () Bool true)
(define-fun mainventry!_Cond ((x0 Int) (x1 Int) (x2 Int) (x3 Int) (x4 Int) (x5 Int) (x6 Int) (x7 Int) (x8 Int) (x9 Int) (x10 (Array Int Int)) (x11 (Array Int Int)) (x12 (Array Int Int)) (x13 (Array Int Int)) (x14 (Array Int Int)) (x15 (Array Int Int)) (x16 (Array Int Int)) (x17 (Array Int Int)) (x18 (Array Int Int)) (x19 (Array Int Int))) Bool (= x0 x0))
(define-fun mainventry!_FwdCond ((x0 Int)) Bool (= x0 x0))
