conditionSynthesis/results/repairExamples_04-10-11-44-39/cvc4/sv-comp/ntdrivers-simplified/kbfiltr_simpl1_synth.cvc4.out
./repairExamples_04-10-11-44-39/forwardSl/sv-comp/ntdrivers-simplified/kbfiltr_simpl1_synth.cil_unknown.c.fwd.sl:1.9: No set-logic command was given before this point.
./repairExamples_04-10-11-44-39/forwardSl/sv-comp/ntdrivers-simplified/kbfiltr_simpl1_synth.cil_unknown.c.fwd.sl:1.9: CVC4 will make all theories available.
./repairExamples_04-10-11-44-39/forwardSl/sv-comp/ntdrivers-simplified/kbfiltr_simpl1_synth.cil_unknown.c.fwd.sl:1.9: Consider setting a stricter logic for (likely) better performance.
./repairExamples_04-10-11-44-39/forwardSl/sv-comp/ntdrivers-simplified/kbfiltr_simpl1_synth.cil_unknown.c.fwd.sl:1.9: To suppress this warning in the future use (set-logic ALL).
./repairExamples_04-10-11-44-39/forwardSl/sv-comp/ntdrivers-simplified/kbfiltr_simpl1_synth.cil_unknown.c.fwd.sl:3.180: No implementation for default Sygus grammar of type (Array Int Int)

./repairExamples_04-10-11-44-39/forwardSl/sv-comp/ntdrivers-simplified/kbfiltr_simpl1_synth.cil_unknown.c.fwd.sl:4.337: No implementation for default Sygus grammar of type (Array Int Int)

./repairExamples_04-10-11-44-39/forwardSl/sv-comp/ntdrivers-simplified/kbfiltr_simpl1_synth.cil_unknown.c.fwd.sl:7.346: No implementation for default Sygus grammar of type (Array Int Int)

